NAME : n100w100.002.780.tour
COMMENT : Length = 780
COMMENT : Found by LKH [Keld Helsgaun] Tue May  2 05:52:31 2017
TYPE : TOUR
DIMENSION : 101
TOUR_SECTION
1
40
70
59
54
14
32
2
51
85
12
58
73
18
11
45
36
87
31
92
83
90
88
53
37
29
89
27
38
97
17
28
46
33
64
8
44
94
7
84
41
22
47
26
82
34
49
48
24
68
96
72
63
30
15
69
75
55
10
56
13
100
60
74
76
66
61
80
20
79
43
21
42
95
98
91
93
62
16
67
50
19
39
78
6
81
23
86
35
4
52
99
25
65
3
57
71
101
5
77
9
-1
EOF
